# POD single point 
log  ./output/log_12

units          metal 
boundary       p p p 
atom_style     atomic
neigh_modify   delay 0 every 1 check no

read_data     ./data_files/lammps_pod_stress_test_DATA_12

pair_style     pod
pair_coeff     * * ./sample_6body_hfo2_param.pod ./sample_6body_2elem_coeffs.pod "" "" Hf O

variable thermo_fname  string ./output/thermo_12.dat
variable dump_fname    string ./output/dump_forces_12.custom
variable tstep         equal 12

# Maybe unneeded
neighbor       0.5 bin 
neigh_modify   every 1 delay 0 check yes

thermo       1
thermo_style custom step temp pe ke etotal press pxx pyy pzz pxy pxz pyz

fix thermo_out all print 1 "$(step) $(pe) $(pxx) $(pyy) $(pzz) $(pxy) $(pxz) $(pyz)" file ${thermo_fname} screen no title "step pe pxx pyy pzz pxy pxz pyz"

dump           run_forces all custom 1 ${dump_fname} id type x y z fx fy fz
dump_modify    run_forces sort id format line "%4d %1d %32.27f %32.27f %32.27f %32.27f %32.27f %32.27f"

reset_timestep ${tstep}
run 0
