# necessary preliminaries
units metal 
atom_style atomic
dimension 3 
boundary p p p 

read_data orthog_Hf_15_9_9_singleOint_DATA 

# neighbor parameters
neighbor 2.0 bin 
neigh_modify every 1 delay 0 check no

# interatomic potential parameters
pair_style     pod
pair_coeff * * HfO2_param.pod HfO2_coefficients.pod Hf O 

thermo 1 
thermo_style custom step temp etotal pe press vol

# full atom minimization 
min_modify dmax 0.005 line backtrack
min_style sd
minimize 1.0e-12 1.0e-18 10000 100000

# output the final relaxed structure 
dump final all custom 1 relaxed_Hf_supercell_Oint_nonvt.lammpstrj id type x y z 
dump_modify final sort id format float %20.15g
run 0 
