# Siviraman GAP

units          metal 
boundary       p p p 
atom_style     atomic

read_data     tetrag_hfo2_sample_DATA 

pair_style     quip
pair_coeff     * * ../ref_hfo2/gap.xml "Potential xml_label=GAP_2020_2_11_0_18_44_47_601" 72 8 

dump           final_dump all custom 1 dump_final.custom id type x y z fx fy fz
dump_modify    final_dump sort id format line "%4d %1d %21.16f %21.16f %21.16f %21.16f %21.16f %21.16f"

run 0
