# user-set variables 
variable TEMP equal 1500

# necessary preliminaries
units metal 
atom_style atomic
dimension 3 
boundary p p p 

read_data pod_relaxed_Hf_supercell_Oint_nonvt_DATA 

# neighbor parameters
neighbor 2.0 bin 
neigh_modify every 1 delay 0 check no

# interatomic potential parameters
pair_style     pod
pair_coeff * * HfO2_param.pod HfO2_coefficients.pod Hf O 

thermo 100 
thermo_style custom step temp etotal pe ke press vol

# dump output
dump 1 all custom 50 ${TEMP}K_nvt.lammpstrj id type x y z 
dump_modify 1 sort id

velocity all create ${TEMP} 9928459 rot yes mom yes dist gaussian
fix 1 all nvt temp ${TEMP} ${TEMP} 0.1 

# run 
run 100000
