# NVT run

units          metal 
boundary       p p p 
atom_style     atomic
atom_modify    map yes

read_data      test_monoclinic_hfo2_unit_DATA
#read_data      spot_check_molly_step80_DATA 

neighbor       0.5 bin 
neigh_modify   every 1 delay 0 check yes

#pair_style     pod
#pair_coeff     * * ../sample_6body_hfo2_param.pod ../sample_6body_2elem_coeffs.pod "" "" Hf O
pair_style    zero 10.0
pair_coeff    * *

compute ld all pod/atom ../sample_6body_hfo2_param.pod "" ""  Hf O
compute dd all podd/atom ../sample_6body_hfo2_param.pod "" "" Hf O

variable sample_dd5 equal c_dd[5][49]
fix ddprint all print 1 "${sample_dd5}" file new_sample_dd.txt

run 0

delete_atoms   group all

#read_data      spot_check_molly_step80_DATA  add merge

mass 1 178.486
mass 2 15.999
change_box all x final 0.000000000000000000000000000 5.136475506554315728635629057 y final 0.000000000000000000000000000 5.193413337544470209650171455 z final 0.000000000000000000000000000 5.246159804521276726063661044 xz final -0.883442968274303019882154331 boundary p p p


create_atoms 1 single 0.776203818919444787916006590 2.350166829158174763847455324 3.682797980824850103687140290
create_atoms 1 single 3.046909974681736965607115053 4.944150105556711416454618302 4.138358285486625653959436022
create_atoms 1 single 3.476827233049027299216504616 2.843247525261339170299379475 1.563359341695713888853447315
create_atoms 1 single 1.206121357063365095996232412 0.249264269623342554771383561 1.107798839749943642374319097
create_atoms 2 single 1.992388292737735655535402657 3.756099553796239387537525545 0.094680110732730332623319214
create_atoms 2 single 2.415659899710223434965428169 1.232091591716474976436757061 2.535088502166750856758881127
create_atoms 2 single 2.260642995344876116092791563 1.437314984791091765359283272 5.151477127466908001451884047
create_atoms 2 single 1.837371541104662497900790186 3.961322345404707068183824958 2.711068754608851882892395224
create_atoms 2 single -0.040098562735613671459411478 1.710173262166000407447086218 1.839590910655264810458220381
create_atoms 2 single 4.637992808257605403809975542 4.332359369278528937741157279 0.806657226745606470430516310
create_atoms 2 single 4.293129979308621280154056876 3.483241329365950100793725142 3.406566397691777936529433646
create_atoms 2 single -0.384961544867351790344400797 0.861055037948540880066161662 4.439500168075511510323849507

run 0
