# compute POD descriptors

units          metal 
boundary       p p p 
atom_style     atomic

read_data      ../test_monoclinic_hfo2_unit_DATA
#displace_atoms 	all random 0.1 0.1 0.1 123456

neighbor       0.5 bin 
neigh_modify   every 1 delay 0 check yes

pair_style     pod
pair_coeff     * * ../HfO2_FPOD_020224_param.pod ../HfO2_FPOD_020224_v2_coefficients.pod "" "" Hf O

compute dd all podd/atom ../HfO2_FPOD_020224_param.pod "" "" Hf O

dump 		     mydump_dd all custom 1 dump_dd id type c_dd[*]
dump_modify  mydump_dd sort id format float %20.15g


run 0
