# Demonstrate bispectrum computes

# initialize simulation

variable 	nsteps index 0
variable 	nrep equal 1
variable 	a equal 2.0
units		metal

# generate the box and atom positions using a BCC lattice

variable 	nx equal ${nrep}
variable 	ny equal ${nrep}
variable 	nz equal ${nrep}

boundary	p p p

atom_modify	map hash
lattice         bcc $a
region		box block 0 ${nx} 0 ${ny} 0 ${nz}
create_box	2 box
create_atoms	2 box

mass 		* 180.88

displace_atoms 	all random 0.1 0.1 0.1 123456

# set up dummy potential to satisfy cutoff

variable 	rcutfac equal 1.0

pair_style 	zero ${rcutfac}
pair_coeff 	* *

# set up reference potential

variable 	zblcutinner equal 2.0
variable 	zblcutouter equal 6.0
variable 	zblz equal 73
pair_style 	zbl ${zblcutinner} ${zblcutouter}
pair_coeff 	* * ${zblz} ${zblz}

# set up per-atom computes

compute ld all pod/atom param.pod "" "" C C
compute dd all podd/atom param.pod "" "" C C

# perform sums over atoms

group 		snapgroup1 type 1
group 		snapgroup2 type 2

# set up compute fpod generating local and global descriptors

compute ldd all pod/ldd param.pod "" "" C C
fix 		ldd all ave/time 1 1 1 c_ldd[*] file pod.ldd.dat mode vector

compute gdd all pod/gdd param.pod "" "" C C
fix 		gdd all ave/time 1 1 1 c_gdd[*] file pod.gdd.dat mode vector

thermo 		100

dump 		mydump_ld all custom 1000 dump_ld id c_ld[*]
dump 		mydump_dd all custom 1000 dump_dd id c_dd[*]

# Run MD

run             ${nsteps}
