# doing this quick and dirty, sorry!
# necessary preliminaries
units metal 
atom_style atomic
dimension 3 
boundary p p p 

read_data OT_path_DATA0

# neighbor parameters
neighbor 2.0 bin 
neigh_modify every 1 delay 0 check no

# interatomic potential parameters
pair_style     pod
pair_coeff * * HfO2_param.pod HfO2_coefficients.pod Hf O 

thermo 1
thermo_style custom step temp etotal pe ke press vol

# run 
run 0

delete_atoms group all
reset_timestep 1
read_data OT_path_DATA1 add merge
run 0


delete_atoms group all
reset_timestep 2
read_data OT_path_DATA2 add merge
run 0


delete_atoms group all
reset_timestep 3
read_data OT_path_DATA3 add merge
run 0


delete_atoms group all
reset_timestep 4
read_data OT_path_DATA4 add merge
run 0


delete_atoms group all
reset_timestep 5
read_data OT_path_DATA5 add merge
run 0


delete_atoms group all
reset_timestep 6
read_data OT_path_DATA6 add merge
run 0
