#

units          metal 
boundary       p p p 
atom_style     atomic
neigh_modify   delay 0 every 1 check no

read_data    fcc_lj_Ar_smaller_DATA 

pair_style     lj/cut 8.51
pair_coeff     * * 0.01032 3.405

variable T        equal  100
variable Tdamp    equal  0.1
variable Tseed    equal  12280329
variable dumpf    equal  10000

velocity     all create $T ${Tseed} mom yes rot yes dist gaussian

thermo       10000
thermo_style custom step temp pe ke etotal press

#dump           run_dump all xyz ${dumpf} dump_run.xyz
#dump_modify    run_dump sort id format line "%s %32.27f %32.27f %32.27f"

dump           run_forces all custom ${dumpf} dump_run_forces_highp_nocheck.custom id type x y z fx fy fz vx vy vz
dump_modify    run_forces sort id format line "%4d %1d %32.27f %32.27f %32.27f %32.27f %32.27f %32.27f %32.27f %32.27f %32.27f"


fix          nvt all nvt temp $T $T ${Tdamp}
run 500000
