units          metal
boundary       p p p
atom_style     atomic

read_data     alt_TiAl_example_non-orthog_DATA 

pair_style     pace
pair_coeff     * * IBP_ACE_example_TiAl_2.yace Ti Al

dump           run_forces all custom 1 dump_forces.custom id type x y z fx fy fz
dump_modify    run_forces sort id element Ti Al format line "%4d %1d %21.16f %21.16f %21.16f %21.16f %21.16f %21.16f" 

fix eprint all print 1 "$(step) $(pe)" file pe.dat

run 0
