# NVT run

#variable Tseed    equal  12280329
#variable dumpnum  equal 1
#variable Tseed    equal  92353424
#variable dumpnum  equal 2
variable Tseed    equal  13234532
variable dumpnum  equal 3
#variable Tseed    equal  98639823
#variable dumpnum  equal 4
#variable Tseed    equal  45582371
#variable dumpnum  equal 5


units          metal 
boundary       p p p 
atom_style     atomic

read_data      ../../../files/HfO2_108atom_DATA

neighbor       0.5 bin 
neigh_modify   every 1 delay 0 check yes

pair_style     pod
pair_coeff     * * ../../../files/sample_6body_hfo2_param.pod ../../../files/sample_6body_2elem_coeffs.pod "" "" Hf O

variable T        equal  500
variable Tdamp    equal  0.1

velocity     all create $T ${Tseed} mom yes rot yes dist gaussian

thermo       100
thermo_style custom step temp pe ke etotal press

dump        full_dump all atom 1 dump_full_${dumpnum}.atom
dump_modify full_dump sort id format line "%d %d %21.16g %21.16g %21.16g"

fix          nvt all nvt temp $T $T ${Tdamp}
run 3000 
