# Siviraman GAP test 

units          metal 
boundary       p p p 
atom_style     atomic
neigh_modify   delay 0 every 1 check no

read_data     ../tetrag_hfo2_sample_DATA 

pair_style     quip
pair_coeff     * * ../gap.xml "Potential xml_label=GAP_2020_2_11_0_18_44_47_601" 72 8 

variable dumpf    equal  1

thermo       1
thermo_style custom step temp pe ke etotal press

dump           run_forces all custom ${dumpf} dump_rerun_gap.custom id type x y z fx fy fz
dump_modify    run_forces sort id format line "%4d %1d %32.27f %32.27f %32.27f %32.27f %32.27f %32.27f"

rerun ../dump_single.custom dump x y z

