# rerun

units          metal 
boundary       p p p 
atom_style     atomic
neigh_modify   delay 0 every 1 check no

read_data     tetrag_hfo2_sample_DATA 

pair_style     pace
pair_coeff     * * Siviraman_GAP_HfO2_N3_rcut5_maxdeg10_regQR.yace Hf O

variable dumpf    equal  1

thermo       1
thermo_style custom step temp pe ke etotal press

#dump           run_dump all xyz ${dumpf} dump_run.xyz
#dump_modify    run_dump sort id format line "%s %32.27f %32.27f %32.27f"

dump           run_forces all custom ${dumpf} dump_rerun_forces_highp_nocheck.custom id type x y z fx fy fz vx vy vz
dump_modify    run_forces sort id format line "%4d %1d %32.27f %32.27f %32.27f %32.27f %32.27f %32.27f %32.27f %32.27f %32.27f"


rerun dump_run_forces_highp_nocheck.custom dump x y z
