# necessary preliminaries
units metal 
atom_style charge 
dimension 3 
boundary p p p 

read_data orthog_Hf_unit_cell_DATA

# neighbor parameters
neighbor 2.0 bin 
neigh_modify every 1 delay 0 check no

# interatomic potential parameters
pair_style comb 
pair_coeff * * ffield.comb Hf O 

# minimization where we allow both the box parameters and the atomic positions to relax
fix 1 all box/relax aniso 0.0 vmax 0.002
min_modify dmax 0.005 line quadratic
minimize 1.0e-12 1.0e-18 10000 100000

# output the final relaxed structure 
dump final all custom 1 relaxed_Hf.lammpstrj id type q x y z 
dump_modify final sort id format float %20.15g
run 0 
